# Solution for model problem
# Objective value = 3.03e-05
CLIENT_PE0_0 0
CLIENT_PE2_0 0
CLIENT_PE3_0 0
CLIENT_PE4_0 0
CLIENT_PE6_0 0
CLIENT_PE7_0 0
CLIENT_PE13_0 1
CLIENT_PE14_0 0
CLIENT_PE0_2 0
CLIENT_PE2_2 0
CLIENT_PE3_2 0
CLIENT_PE4_2 0
CLIENT_PE6_2 0
CLIENT_PE7_2 0
CLIENT_PE13_2 1
CLIENT_PE14_2 0
CLIENT_PE0_1 0
CLIENT_PE1_1 0
CLIENT_PE2_1 0
CLIENT_PE3_1 0
CLIENT_PE4_1 0
CLIENT_PE5_1 0
CLIENT_PE6_1 0
CLIENT_PE7_1 0
CLIENT_PE8_1 0
CLIENT_PE9_1 0
CLIENT_PE10_1 0
CLIENT_PE11_1 0
CLIENT_PE12_1 0
CLIENT_PE13_1 0
CLIENT_PE14_1 0
CLIENT_PE15_1 1
CLIENT_PE16_1 0
src_0 1
src_1 0
src_2 0
src_3 0
src_4 0
ptr_0 1
ptr_1 0
ptr_2 0
ptr_3 0
ptr_4 0
cache_0 1
cache_1 0
cache_2 0
cache_3 0
cache_4 0
tooth_0 1
tooth_1 0
tooth_2 0
tooth_3 0
tooth_4 0
sink_0 1
sink_1 0
sink_2 0
sink_3 0
sink_4 0
